NAME : LPS-n31-m41
COMMENT : (Lartu-Peter-Santi Plot, instance 11241 out of 39200. 31 customers.)
TYPE : CVRP
DIMENSION : 31
EDGE_WEIGHT_TYPE : EUC_2D
CAPACITY : 135
NODE_COORD_SECTION
 1 59 83
 2 57 31
 3 69 88
 4 33 63
 5 96 6
 6 6 63
 7 65 67
 8 18 18
 9 91 63
 10 88 75
 11 97 93
 12 56 41
 13 98 94
 14 76 86
 15 87 38
 16 20 29
 17 14 33
 18 76 77
 19 62 43
 20 19 78
 21 10 2
 22 11 33
 23 74 77
 24 21 68
 25 8 24
 26 61 46
 27 96 63
 28 35 82
 29 87 41
 30 15 31
 31 39 99
DEMAND_SECTION
1 0
2 94
3 55
4 126
5 130
6 110
7 16
8 108
9 19
10 14
11 122
12 109
13 91
14 12
15 38
16 22
17 102
18 18
19 103
20 19
21 57
22 97
23 34
24 103
25 83
26 40
27 48
28 48
29 86
30 101
31 33
DEPOT_SECTION
 1
 -1
EOF
